horizontal = [| ">","<",">","<","<",">",
              | ">","<","<","<",">",">",
              | "<",">","<",">",">","<",
              | ">","<",">","<","<","<",
              | "<","<","<",">",">","<",
              | ">",">",">","<","<",">",
              | ">",">","<",">",">","<",
              | "<",">","<",">","<",">",
              | "<",">",">","<","<",">"
              |];
vertical = [| "^","v","^","v","v","^","^","^","^"
            | "v","^","^","^","^","v","^","v","^"
            | "v","^","^","v","^","v","^","v","v"
            | "v","v","v","^","v","^","v","^","^"
            | "v","^","v","^","^","^","v","^","v"
            | "^","^","^","v","v","^","v","v","v"
            |];